(set-option :produce-models true)
(set-logic QF_LRA)
(set-info :notes | Strip-packing problem.|)
(declare-fun x0 () Real)
(declare-fun y0 () Real)
(declare-fun x1 () Real)
(declare-fun y1 () Real)
(declare-fun x2 () Real)
(declare-fun y2 () Real)
(declare-fun x3 () Real)
(declare-fun y3 () Real)
(declare-fun x4 () Real)
(declare-fun y4 () Real)
(declare-fun x5 () Real)
(declare-fun y5 () Real)
(declare-fun x6 () Real)
(declare-fun y6 () Real)
(declare-fun x7 () Real)
(declare-fun y7 () Real)
(declare-fun x8 () Real)
(declare-fun y8 () Real)
(declare-fun x9 () Real)
(declare-fun y9 () Real)
(declare-fun x10 () Real)
(declare-fun y10 () Real)
(declare-fun x11 () Real)
(declare-fun y11 () Real)
(declare-fun x12 () Real)
(declare-fun y12 () Real)
(declare-fun x13 () Real)
(declare-fun y13 () Real)
(declare-fun x14 () Real)
(declare-fun y14 () Real)
(declare-fun z () Real)
(declare-fun c () Real)
(assert (and (= c z) (and (>= x0 0) 
(and (>= y0 0) 
(and (>= x1 0) 
(and (>= y1 0) 
(and (>= x2 0) 
(and (>= y2 0) 
(and (>= x3 0) 
(and (>= y3 0) 
(and (>= x4 0) 
(and (>= y4 0) 
(and (>= x5 0) 
(and (>= y5 0) 
(and (>= x6 0) 
(and (>= y6 0) 
(and (>= x7 0) 
(and (>= y7 0) 
(and (>= x8 0) 
(and (>= y8 0) 
(and (>= x9 0) 
(and (>= y9 0) 
(and (>= x10 0) 
(and (>= y10 0) 
(and (>= x11 0) 
(and (>= y11 0) 
(and (>= x12 0) 
(and (>= y12 0) 
(and (>= x13 0) 
(and (>= y13 0) 
(and (>= x14 0) 
(and (>= y14 0) 
(and (>= z 0) 
(and (>= c 0) 
(and (<= (+ x0 0.3017171481) z) 
(and (<= 0.978186472 y0) 
(and (<= y0 1.0) 
(and (<= x0 (- 5.5753191366 0.3017171481)) 
(and (>= x0 0) 
(and (<= (+ x1 0.4876480749) z) 
(and (<= 0.9717326972 y1) 
(and (<= y1 1.0) 
(and (<= x1 (- 5.5753191366 0.4876480749)) 
(and (>= x1 0) 
(and (<= (+ x2 0.6039733818) z) 
(and (<= 0.7939465709 y2) 
(and (<= y2 1.0) 
(and (<= x2 (- 5.5753191366 0.6039733818)) 
(and (>= x2 0) 
(and (<= (+ x3 0.5927695733) z) 
(and (<= 0.6854956591 y3) 
(and (<= y3 1.0) 
(and (<= x3 (- 5.5753191366 0.5927695733)) 
(and (>= x3 0) 
(and (<= (+ x4 0.7449178473) z) 
(and (<= 0.6609476927 y4) 
(and (<= y4 1.0) 
(and (<= x4 (- 5.5753191366 0.7449178473)) 
(and (>= x4 0) 
(and (<= (+ x5 0.1736105814) z) 
(and (<= 0.6275533284 y5) 
(and (<= y5 1.0) 
(and (<= x5 (- 5.5753191366 0.1736105814)) 
(and (>= x5 0) 
(and (<= (+ x6 0.9389523929) z) 
(and (<= 0.5624272339 y6) 
(and (<= y6 1.0) 
(and (<= x6 (- 5.5753191366 0.9389523929)) 
(and (>= x6 0) 
(and (<= (+ x7 0.01894379) z) 
(and (<= 0.5166617375 y7) 
(and (<= y7 1.0) 
(and (<= x7 (- 5.5753191366 0.01894379)) 
(and (>= x7 0) 
(and (<= (+ x8 0.724051184) z) 
(and (<= 0.4956837087 y8) 
(and (<= y8 1.0) 
(and (<= x8 (- 5.5753191366 0.724051184)) 
(and (>= x8 0) 
(and (<= (+ x9 0.9887351629) z) 
(and (<= 0.4234080354 y9) 
(and (<= y9 1.0) 
(and (<= x9 (- 5.5753191366 0.9887351629)) 
(and (>= x9 0) 
(and (<= (+ x10 0.6821632218) z) 
(and (<= 0.3113086012 y10) 
(and (<= y10 1.0) 
(and (<= x10 (- 5.5753191366 0.6821632218)) 
(and (>= x10 0) 
(and (<= (+ x11 0.182202359) z) 
(and (<= 0.2412159067 y11) 
(and (<= y11 1.0) 
(and (<= x11 (- 5.5753191366 0.182202359)) 
(and (>= x11 0) 
(and (<= (+ x12 0.1187815822) z) 
(and (<= 0.2008917786 y12) 
(and (<= y12 1.0) 
(and (<= x12 (- 5.5753191366 0.1187815822)) 
(and (>= x12 0) 
(and (<= (+ x13 0.6294056899) z) 
(and (<= 0.0923748637 y13) 
(and (<= y13 1.0) 
(and (<= x13 (- 5.5753191366 0.6294056899)) 
(and (>= x13 0) 
(and (<= (+ x14 0.6534293702) z) 
(and (<= 0.0916229342 y14) 
(and (<= y14 1.0) 
(and (<= x14 (- 5.5753191366 0.6534293702)) 
(and (>= x14 0) 
(and (<= c 5.5753191366) 
(and (or (<= (+ x0 0.3017171481) x1) (or (<= (+ x1 0.4876480749) x0) (or (>= (- y0 0.978186472) y1) (or (>= (- y1 0.9717326972) y0))))) 
(and (or (<= (+ x0 0.3017171481) x2) (or (<= (+ x2 0.6039733818) x0) (or (>= (- y0 0.978186472) y2) (or (>= (- y2 0.7939465709) y0))))) 
(and (or (<= (+ x0 0.3017171481) x3) (or (<= (+ x3 0.5927695733) x0) (or (>= (- y0 0.978186472) y3) (or (>= (- y3 0.6854956591) y0))))) 
(and (or (<= (+ x0 0.3017171481) x4) (or (<= (+ x4 0.7449178473) x0) (or (>= (- y0 0.978186472) y4) (or (>= (- y4 0.6609476927) y0))))) 
(and (or (<= (+ x0 0.3017171481) x5) (or (<= (+ x5 0.1736105814) x0) (or (>= (- y0 0.978186472) y5) (or (>= (- y5 0.6275533284) y0))))) 
(and (or (<= (+ x0 0.3017171481) x6) (or (<= (+ x6 0.9389523929) x0) (or (>= (- y0 0.978186472) y6) (or (>= (- y6 0.5624272339) y0))))) 
(and (or (<= (+ x0 0.3017171481) x7) (or (<= (+ x7 0.01894379) x0) (or (>= (- y0 0.978186472) y7) (or (>= (- y7 0.5166617375) y0))))) 
(and (or (<= (+ x0 0.3017171481) x8) (or (<= (+ x8 0.724051184) x0) (or (>= (- y0 0.978186472) y8) (or (>= (- y8 0.4956837087) y0))))) 
(and (or (<= (+ x0 0.3017171481) x9) (or (<= (+ x9 0.9887351629) x0) (or (>= (- y0 0.978186472) y9) (or (>= (- y9 0.4234080354) y0))))) 
(and (or (<= (+ x0 0.3017171481) x10) (or (<= (+ x10 0.6821632218) x0) (or (>= (- y0 0.978186472) y10) (or (>= (- y10 0.3113086012) y0))))) 
(and (or (<= (+ x0 0.3017171481) x11) (or (<= (+ x11 0.182202359) x0) (or (>= (- y0 0.978186472) y11) (or (>= (- y11 0.2412159067) y0))))) 
(and (or (<= (+ x0 0.3017171481) x12) (or (<= (+ x12 0.1187815822) x0) (or (>= (- y0 0.978186472) y12) (or (>= (- y12 0.2008917786) y0))))) 
(and (or (<= (+ x0 0.3017171481) x13) (or (<= (+ x13 0.6294056899) x0) (or (>= (- y0 0.978186472) y13) (or (>= (- y13 0.0923748637) y0))))) 
(and (or (<= (+ x0 0.3017171481) x14) (or (<= (+ x14 0.6534293702) x0) (or (>= (- y0 0.978186472) y14) (or (>= (- y14 0.0916229342) y0))))) 
(and (or (<= (+ x1 0.4876480749) x2) (or (<= (+ x2 0.6039733818) x1) (or (>= (- y1 0.9717326972) y2) (or (>= (- y2 0.7939465709) y1))))) 
(and (or (<= (+ x1 0.4876480749) x3) (or (<= (+ x3 0.5927695733) x1) (or (>= (- y1 0.9717326972) y3) (or (>= (- y3 0.6854956591) y1))))) 
(and (or (<= (+ x1 0.4876480749) x4) (or (<= (+ x4 0.7449178473) x1) (or (>= (- y1 0.9717326972) y4) (or (>= (- y4 0.6609476927) y1))))) 
(and (or (<= (+ x1 0.4876480749) x5) (or (<= (+ x5 0.1736105814) x1) (or (>= (- y1 0.9717326972) y5) (or (>= (- y5 0.6275533284) y1))))) 
(and (or (<= (+ x1 0.4876480749) x6) (or (<= (+ x6 0.9389523929) x1) (or (>= (- y1 0.9717326972) y6) (or (>= (- y6 0.5624272339) y1))))) 
(and (or (<= (+ x1 0.4876480749) x7) (or (<= (+ x7 0.01894379) x1) (or (>= (- y1 0.9717326972) y7) (or (>= (- y7 0.5166617375) y1))))) 
(and (or (<= (+ x1 0.4876480749) x8) (or (<= (+ x8 0.724051184) x1) (or (>= (- y1 0.9717326972) y8) (or (>= (- y8 0.4956837087) y1))))) 
(and (or (<= (+ x1 0.4876480749) x9) (or (<= (+ x9 0.9887351629) x1) (or (>= (- y1 0.9717326972) y9) (or (>= (- y9 0.4234080354) y1))))) 
(and (or (<= (+ x1 0.4876480749) x10) (or (<= (+ x10 0.6821632218) x1) (or (>= (- y1 0.9717326972) y10) (or (>= (- y10 0.3113086012) y1))))) 
(and (or (<= (+ x1 0.4876480749) x11) (or (<= (+ x11 0.182202359) x1) (or (>= (- y1 0.9717326972) y11) (or (>= (- y11 0.2412159067) y1))))) 
(and (or (<= (+ x1 0.4876480749) x12) (or (<= (+ x12 0.1187815822) x1) (or (>= (- y1 0.9717326972) y12) (or (>= (- y12 0.2008917786) y1))))) 
(and (or (<= (+ x1 0.4876480749) x13) (or (<= (+ x13 0.6294056899) x1) (or (>= (- y1 0.9717326972) y13) (or (>= (- y13 0.0923748637) y1))))) 
(and (or (<= (+ x1 0.4876480749) x14) (or (<= (+ x14 0.6534293702) x1) (or (>= (- y1 0.9717326972) y14) (or (>= (- y14 0.0916229342) y1))))) 
(and (or (<= (+ x2 0.6039733818) x3) (or (<= (+ x3 0.5927695733) x2) (or (>= (- y2 0.7939465709) y3) (or (>= (- y3 0.6854956591) y2))))) 
(and (or (<= (+ x2 0.6039733818) x4) (or (<= (+ x4 0.7449178473) x2) (or (>= (- y2 0.7939465709) y4) (or (>= (- y4 0.6609476927) y2))))) 
(and (or (<= (+ x2 0.6039733818) x5) (or (<= (+ x5 0.1736105814) x2) (or (>= (- y2 0.7939465709) y5) (or (>= (- y5 0.6275533284) y2))))) 
(and (or (<= (+ x2 0.6039733818) x6) (or (<= (+ x6 0.9389523929) x2) (or (>= (- y2 0.7939465709) y6) (or (>= (- y6 0.5624272339) y2))))) 
(and (or (<= (+ x2 0.6039733818) x7) (or (<= (+ x7 0.01894379) x2) (or (>= (- y2 0.7939465709) y7) (or (>= (- y7 0.5166617375) y2))))) 
(and (or (<= (+ x2 0.6039733818) x8) (or (<= (+ x8 0.724051184) x2) (or (>= (- y2 0.7939465709) y8) (or (>= (- y8 0.4956837087) y2))))) 
(and (or (<= (+ x2 0.6039733818) x9) (or (<= (+ x9 0.9887351629) x2) (or (>= (- y2 0.7939465709) y9) (or (>= (- y9 0.4234080354) y2))))) 
(and (or (<= (+ x2 0.6039733818) x10) (or (<= (+ x10 0.6821632218) x2) (or (>= (- y2 0.7939465709) y10) (or (>= (- y10 0.3113086012) y2))))) 
(and (or (<= (+ x2 0.6039733818) x11) (or (<= (+ x11 0.182202359) x2) (or (>= (- y2 0.7939465709) y11) (or (>= (- y11 0.2412159067) y2))))) 
(and (or (<= (+ x2 0.6039733818) x12) (or (<= (+ x12 0.1187815822) x2) (or (>= (- y2 0.7939465709) y12) (or (>= (- y12 0.2008917786) y2))))) 
(and (or (<= (+ x2 0.6039733818) x13) (or (<= (+ x13 0.6294056899) x2) (or (>= (- y2 0.7939465709) y13) (or (>= (- y13 0.0923748637) y2))))) 
(and (or (<= (+ x2 0.6039733818) x14) (or (<= (+ x14 0.6534293702) x2) (or (>= (- y2 0.7939465709) y14) (or (>= (- y14 0.0916229342) y2))))) 
(and (or (<= (+ x3 0.5927695733) x4) (or (<= (+ x4 0.7449178473) x3) (or (>= (- y3 0.6854956591) y4) (or (>= (- y4 0.6609476927) y3))))) 
(and (or (<= (+ x3 0.5927695733) x5) (or (<= (+ x5 0.1736105814) x3) (or (>= (- y3 0.6854956591) y5) (or (>= (- y5 0.6275533284) y3))))) 
(and (or (<= (+ x3 0.5927695733) x6) (or (<= (+ x6 0.9389523929) x3) (or (>= (- y3 0.6854956591) y6) (or (>= (- y6 0.5624272339) y3))))) 
(and (or (<= (+ x3 0.5927695733) x7) (or (<= (+ x7 0.01894379) x3) (or (>= (- y3 0.6854956591) y7) (or (>= (- y7 0.5166617375) y3))))) 
(and (or (<= (+ x3 0.5927695733) x8) (or (<= (+ x8 0.724051184) x3) (or (>= (- y3 0.6854956591) y8) (or (>= (- y8 0.4956837087) y3))))) 
(and (or (<= (+ x3 0.5927695733) x9) (or (<= (+ x9 0.9887351629) x3) (or (>= (- y3 0.6854956591) y9) (or (>= (- y9 0.4234080354) y3))))) 
(and (or (<= (+ x3 0.5927695733) x10) (or (<= (+ x10 0.6821632218) x3) (or (>= (- y3 0.6854956591) y10) (or (>= (- y10 0.3113086012) y3))))) 
(and (or (<= (+ x3 0.5927695733) x11) (or (<= (+ x11 0.182202359) x3) (or (>= (- y3 0.6854956591) y11) (or (>= (- y11 0.2412159067) y3))))) 
(and (or (<= (+ x3 0.5927695733) x12) (or (<= (+ x12 0.1187815822) x3) (or (>= (- y3 0.6854956591) y12) (or (>= (- y12 0.2008917786) y3))))) 
(and (or (<= (+ x3 0.5927695733) x13) (or (<= (+ x13 0.6294056899) x3) (or (>= (- y3 0.6854956591) y13) (or (>= (- y13 0.0923748637) y3))))) 
(and (or (<= (+ x3 0.5927695733) x14) (or (<= (+ x14 0.6534293702) x3) (or (>= (- y3 0.6854956591) y14) (or (>= (- y14 0.0916229342) y3))))) 
(and (or (<= (+ x4 0.7449178473) x5) (or (<= (+ x5 0.1736105814) x4) (or (>= (- y4 0.6609476927) y5) (or (>= (- y5 0.6275533284) y4))))) 
(and (or (<= (+ x4 0.7449178473) x6) (or (<= (+ x6 0.9389523929) x4) (or (>= (- y4 0.6609476927) y6) (or (>= (- y6 0.5624272339) y4))))) 
(and (or (<= (+ x4 0.7449178473) x7) (or (<= (+ x7 0.01894379) x4) (or (>= (- y4 0.6609476927) y7) (or (>= (- y7 0.5166617375) y4))))) 
(and (or (<= (+ x4 0.7449178473) x8) (or (<= (+ x8 0.724051184) x4) (or (>= (- y4 0.6609476927) y8) (or (>= (- y8 0.4956837087) y4))))) 
(and (or (<= (+ x4 0.7449178473) x9) (or (<= (+ x9 0.9887351629) x4) (or (>= (- y4 0.6609476927) y9) (or (>= (- y9 0.4234080354) y4))))) 
(and (or (<= (+ x4 0.7449178473) x10) (or (<= (+ x10 0.6821632218) x4) (or (>= (- y4 0.6609476927) y10) (or (>= (- y10 0.3113086012) y4))))) 
(and (or (<= (+ x4 0.7449178473) x11) (or (<= (+ x11 0.182202359) x4) (or (>= (- y4 0.6609476927) y11) (or (>= (- y11 0.2412159067) y4))))) 
(and (or (<= (+ x4 0.7449178473) x12) (or (<= (+ x12 0.1187815822) x4) (or (>= (- y4 0.6609476927) y12) (or (>= (- y12 0.2008917786) y4))))) 
(and (or (<= (+ x4 0.7449178473) x13) (or (<= (+ x13 0.6294056899) x4) (or (>= (- y4 0.6609476927) y13) (or (>= (- y13 0.0923748637) y4))))) 
(and (or (<= (+ x4 0.7449178473) x14) (or (<= (+ x14 0.6534293702) x4) (or (>= (- y4 0.6609476927) y14) (or (>= (- y14 0.0916229342) y4))))) 
(and (or (<= (+ x5 0.1736105814) x6) (or (<= (+ x6 0.9389523929) x5) (or (>= (- y5 0.6275533284) y6) (or (>= (- y6 0.5624272339) y5))))) 
(and (or (<= (+ x5 0.1736105814) x7) (or (<= (+ x7 0.01894379) x5) (or (>= (- y5 0.6275533284) y7) (or (>= (- y7 0.5166617375) y5))))) 
(and (or (<= (+ x5 0.1736105814) x8) (or (<= (+ x8 0.724051184) x5) (or (>= (- y5 0.6275533284) y8) (or (>= (- y8 0.4956837087) y5))))) 
(and (or (<= (+ x5 0.1736105814) x9) (or (<= (+ x9 0.9887351629) x5) (or (>= (- y5 0.6275533284) y9) (or (>= (- y9 0.4234080354) y5))))) 
(and (or (<= (+ x5 0.1736105814) x10) (or (<= (+ x10 0.6821632218) x5) (or (>= (- y5 0.6275533284) y10) (or (>= (- y10 0.3113086012) y5))))) 
(and (or (<= (+ x5 0.1736105814) x11) (or (<= (+ x11 0.182202359) x5) (or (>= (- y5 0.6275533284) y11) (or (>= (- y11 0.2412159067) y5))))) 
(and (or (<= (+ x5 0.1736105814) x12) (or (<= (+ x12 0.1187815822) x5) (or (>= (- y5 0.6275533284) y12) (or (>= (- y12 0.2008917786) y5))))) 
(and (or (<= (+ x5 0.1736105814) x13) (or (<= (+ x13 0.6294056899) x5) (or (>= (- y5 0.6275533284) y13) (or (>= (- y13 0.0923748637) y5))))) 
(and (or (<= (+ x5 0.1736105814) x14) (or (<= (+ x14 0.6534293702) x5) (or (>= (- y5 0.6275533284) y14) (or (>= (- y14 0.0916229342) y5))))) 
(and (or (<= (+ x6 0.9389523929) x7) (or (<= (+ x7 0.01894379) x6) (or (>= (- y6 0.5624272339) y7) (or (>= (- y7 0.5166617375) y6))))) 
(and (or (<= (+ x6 0.9389523929) x8) (or (<= (+ x8 0.724051184) x6) (or (>= (- y6 0.5624272339) y8) (or (>= (- y8 0.4956837087) y6))))) 
(and (or (<= (+ x6 0.9389523929) x9) (or (<= (+ x9 0.9887351629) x6) (or (>= (- y6 0.5624272339) y9) (or (>= (- y9 0.4234080354) y6))))) 
(and (or (<= (+ x6 0.9389523929) x10) (or (<= (+ x10 0.6821632218) x6) (or (>= (- y6 0.5624272339) y10) (or (>= (- y10 0.3113086012) y6))))) 
(and (or (<= (+ x6 0.9389523929) x11) (or (<= (+ x11 0.182202359) x6) (or (>= (- y6 0.5624272339) y11) (or (>= (- y11 0.2412159067) y6))))) 
(and (or (<= (+ x6 0.9389523929) x12) (or (<= (+ x12 0.1187815822) x6) (or (>= (- y6 0.5624272339) y12) (or (>= (- y12 0.2008917786) y6))))) 
(and (or (<= (+ x6 0.9389523929) x13) (or (<= (+ x13 0.6294056899) x6) (or (>= (- y6 0.5624272339) y13) (or (>= (- y13 0.0923748637) y6))))) 
(and (or (<= (+ x6 0.9389523929) x14) (or (<= (+ x14 0.6534293702) x6) (or (>= (- y6 0.5624272339) y14) (or (>= (- y14 0.0916229342) y6))))) 
(and (or (<= (+ x7 0.01894379) x8) (or (<= (+ x8 0.724051184) x7) (or (>= (- y7 0.5166617375) y8) (or (>= (- y8 0.4956837087) y7))))) 
(and (or (<= (+ x7 0.01894379) x9) (or (<= (+ x9 0.9887351629) x7) (or (>= (- y7 0.5166617375) y9) (or (>= (- y9 0.4234080354) y7))))) 
(and (or (<= (+ x7 0.01894379) x10) (or (<= (+ x10 0.6821632218) x7) (or (>= (- y7 0.5166617375) y10) (or (>= (- y10 0.3113086012) y7))))) 
(and (or (<= (+ x7 0.01894379) x11) (or (<= (+ x11 0.182202359) x7) (or (>= (- y7 0.5166617375) y11) (or (>= (- y11 0.2412159067) y7))))) 
(and (or (<= (+ x7 0.01894379) x12) (or (<= (+ x12 0.1187815822) x7) (or (>= (- y7 0.5166617375) y12) (or (>= (- y12 0.2008917786) y7))))) 
(and (or (<= (+ x7 0.01894379) x13) (or (<= (+ x13 0.6294056899) x7) (or (>= (- y7 0.5166617375) y13) (or (>= (- y13 0.0923748637) y7))))) 
(and (or (<= (+ x7 0.01894379) x14) (or (<= (+ x14 0.6534293702) x7) (or (>= (- y7 0.5166617375) y14) (or (>= (- y14 0.0916229342) y7))))) 
(and (or (<= (+ x8 0.724051184) x9) (or (<= (+ x9 0.9887351629) x8) (or (>= (- y8 0.4956837087) y9) (or (>= (- y9 0.4234080354) y8))))) 
(and (or (<= (+ x8 0.724051184) x10) (or (<= (+ x10 0.6821632218) x8) (or (>= (- y8 0.4956837087) y10) (or (>= (- y10 0.3113086012) y8))))) 
(and (or (<= (+ x8 0.724051184) x11) (or (<= (+ x11 0.182202359) x8) (or (>= (- y8 0.4956837087) y11) (or (>= (- y11 0.2412159067) y8))))) 
(and (or (<= (+ x8 0.724051184) x12) (or (<= (+ x12 0.1187815822) x8) (or (>= (- y8 0.4956837087) y12) (or (>= (- y12 0.2008917786) y8))))) 
(and (or (<= (+ x8 0.724051184) x13) (or (<= (+ x13 0.6294056899) x8) (or (>= (- y8 0.4956837087) y13) (or (>= (- y13 0.0923748637) y8))))) 
(and (or (<= (+ x8 0.724051184) x14) (or (<= (+ x14 0.6534293702) x8) (or (>= (- y8 0.4956837087) y14) (or (>= (- y14 0.0916229342) y8))))) 
(and (or (<= (+ x9 0.9887351629) x10) (or (<= (+ x10 0.6821632218) x9) (or (>= (- y9 0.4234080354) y10) (or (>= (- y10 0.3113086012) y9))))) 
(and (or (<= (+ x9 0.9887351629) x11) (or (<= (+ x11 0.182202359) x9) (or (>= (- y9 0.4234080354) y11) (or (>= (- y11 0.2412159067) y9))))) 
(and (or (<= (+ x9 0.9887351629) x12) (or (<= (+ x12 0.1187815822) x9) (or (>= (- y9 0.4234080354) y12) (or (>= (- y12 0.2008917786) y9))))) 
(and (or (<= (+ x9 0.9887351629) x13) (or (<= (+ x13 0.6294056899) x9) (or (>= (- y9 0.4234080354) y13) (or (>= (- y13 0.0923748637) y9))))) 
(and (or (<= (+ x9 0.9887351629) x14) (or (<= (+ x14 0.6534293702) x9) (or (>= (- y9 0.4234080354) y14) (or (>= (- y14 0.0916229342) y9))))) 
(and (or (<= (+ x10 0.6821632218) x11) (or (<= (+ x11 0.182202359) x10) (or (>= (- y10 0.3113086012) y11) (or (>= (- y11 0.2412159067) y10))))) 
(and (or (<= (+ x10 0.6821632218) x12) (or (<= (+ x12 0.1187815822) x10) (or (>= (- y10 0.3113086012) y12) (or (>= (- y12 0.2008917786) y10))))) 
(and (or (<= (+ x10 0.6821632218) x13) (or (<= (+ x13 0.6294056899) x10) (or (>= (- y10 0.3113086012) y13) (or (>= (- y13 0.0923748637) y10))))) 
(and (or (<= (+ x10 0.6821632218) x14) (or (<= (+ x14 0.6534293702) x10) (or (>= (- y10 0.3113086012) y14) (or (>= (- y14 0.0916229342) y10))))) 
(and (or (<= (+ x11 0.182202359) x12) (or (<= (+ x12 0.1187815822) x11) (or (>= (- y11 0.2412159067) y12) (or (>= (- y12 0.2008917786) y11))))) 
(and (or (<= (+ x11 0.182202359) x13) (or (<= (+ x13 0.6294056899) x11) (or (>= (- y11 0.2412159067) y13) (or (>= (- y13 0.0923748637) y11))))) 
(and (or (<= (+ x11 0.182202359) x14) (or (<= (+ x14 0.6534293702) x11) (or (>= (- y11 0.2412159067) y14) (or (>= (- y14 0.0916229342) y11))))) 
(and (or (<= (+ x12 0.1187815822) x13) (or (<= (+ x13 0.6294056899) x12) (or (>= (- y12 0.2008917786) y13) (or (>= (- y13 0.0923748637) y12))))) 
(and (or (<= (+ x12 0.1187815822) x14) (or (<= (+ x14 0.6534293702) x12) (or (>= (- y12 0.2008917786) y14) (or (>= (- y14 0.0916229342) y12))))) 
(and (or (<= (+ x13 0.6294056899) x14) (or (<= (+ x14 0.6534293702) x13) (or (>= (- y13 0.0923748637) y14) (or (>= (- y14 0.0916229342) y13))))) )))))))))))))))))))))))))))))))))))))))))))))))))))))))))))))))))))))))))))))))))))))))))))))))))))))))))))))))))))))))))))))))))))))))))))))))))))))))))))))))))))))))))))))))))))))))))))))))))))))))))))))))))))))))
(minimize c)
(check-sat)
(get-objectives)
(exit)
